p cnf 30 120
1 17 20 0
3 16 22 0
6 7 27 0
12 22 24 0
2 21 30 0
2 25 30 0
8 15 28 0
5 9 18 0
16 24 26 0
6 7 8 0
1 10 23 0
4 10 14 0
12 28 29 0
4 13 23 0
13 29 30 0
5 8 9 0
14 18 27 0
7 14 21 0
3 19 22 0
3 12 21 0
10 25 26 0
5 19 23 0
9 15 17 0
11 27 29 0
2 6 15 0
4 16 20 0
13 18 25 0
11 17 26 0
1 19 24 0
11 20 28 0
-1 -17 0
-1 -20 0
-17 -20 0
-3 -16 0
-3 -22 0
-16 -22 0
-6 -7 0
-6 -27 0
-7 -27 0
-12 -22 0
-12 -24 0
-22 -24 0
-2 -21 0
-2 -30 0
-21 -30 0
-2 -25 0
-2 -30 0
-25 -30 0
-8 -15 0
-8 -28 0
-15 -28 0
-5 -9 0
-5 -18 0
-9 -18 0
-16 -24 0
-16 -26 0
-24 -26 0
-6 -7 0
-6 -8 0
-7 -8 0
-1 -10 0
-1 -23 0
-10 -23 0
-4 -10 0
-4 -14 0
-10 -14 0
-12 -28 0
-12 -29 0
-28 -29 0
-4 -13 0
-4 -23 0
-13 -23 0
-13 -29 0
-13 -30 0
-29 -30 0
-5 -8 0
-5 -9 0
-8 -9 0
-14 -18 0
-14 -27 0
-18 -27 0
-7 -14 0
-7 -21 0
-14 -21 0
-3 -19 0
-3 -22 0
-19 -22 0
-3 -12 0
-3 -21 0
-12 -21 0
-10 -25 0
-10 -26 0
-25 -26 0
-5 -19 0
-5 -23 0
-19 -23 0
-9 -15 0
-9 -17 0
-15 -17 0
-11 -27 0
-11 -29 0
-27 -29 0
-2 -6 0
-2 -15 0
-6 -15 0
-4 -16 0
-4 -20 0
-16 -20 0
-13 -18 0
-13 -25 0
-18 -25 0
-11 -17 0
-11 -26 0
-17 -26 0
-1 -19 0
-1 -24 0
-19 -24 0
-11 -20 0
-11 -28 0
-20 -28 0
